(declare-const c_0 Real)
(declare-const c_1 Real)
(declare-const c_2 Real)
(declare-const c_3 Real)
(declare-const c_4 Real)
(declare-const c_5 Real)
(declare-const c_6 Real)
(declare-const c_7 Real)
(declare-const c_8 Real)
(declare-const c_9 Real)
(declare-const c_10 Real)
(declare-const c_11 Real)
(declare-const c_12 Real)
(declare-const c_13 Real)
(declare-const c_14 Real)
(declare-const c_15 Real)
(declare-const c_16 Real)
(declare-const c_17 Real)
(declare-const c_18 Real)
(declare-const c_19 Real)
(declare-const c_20 Real)
(declare-const c_21 Real)
(declare-const c_22 Real)
(declare-const c_23 Real)
(declare-const c_24 Real)
(declare-const c_25 Real)
(declare-const c_26 Real)
(declare-const c_27 Real)
(declare-const c_28 Real)
(declare-const c_29 Real)
(declare-const c_30 Real)
(declare-const c_31 Real)
(declare-const c_32 Real)
(declare-const c_33 Real)
(declare-const c_34 Real)
(declare-const c_35 Real)
(declare-const c_36 Real)
(declare-const c_37 Real)
(declare-const c_38 Real)
(declare-const c_39 Real)
(declare-const c_40 Real)
(declare-const c_41 Real)
(declare-const c_42 Real)
(declare-const c_43 Real)
(declare-const c_44 Real)
(declare-const c_45 Real)
(declare-const c_46 Real)
(declare-const c_47 Real)
(declare-const c_48 Real)
(declare-const c_49 Real)
(declare-const c_50 Real)
(declare-const c_51 Real)
(declare-const c_52 Real)
(declare-const c_53 Real)
(declare-const c_54 Real)
(declare-const c_55 Real)
(declare-const c_56 Real)
(declare-const c_57 Real)
(declare-const c_58 Real)
(declare-const c_59 Real)
(declare-const c_60 Real)
(declare-const c_61 Real)
(declare-const c_62 Real)
(declare-const c_63 Real)
(declare-const c_64 Real)
(declare-const c_65 Real)
(declare-const c_66 Real)
(declare-const c_67 Real)
(declare-const c_68 Real)
(declare-const c_69 Real)
(assert (forall ((cost Real) (x Real) (y Real) ) (=> (and (>= (* 1 y ) 0) (>= (* 1 x ) 0) (>= (+ (* 1 1) (* 1 cost ) (* (- 1) x ) (* (- 1) y ) ) 0) (>= (* 1 cost ) 0) (>= (+ (* 1 1) (* (- 1) x ) ) 0) (>= (+ (* 1 1) (* (- 1) y ) ) 0) (>= (* (- 1) cost ) 0) (>= (* (- 1) x ) 0) (>= (* (- 1) y ) 0) ) (>= (+ (* 1 c_0 ) (* 1 c_1 cost ) (* 1 c_2 cost x ) (* 1 c_3 cost y ) (* 1 c_4 cost cost ) (* 1 c_5 x ) (* 1 c_6 x y ) (* 1 c_7 x x ) (* 1 c_8 y ) (* 1 c_9 y y ) ) 0) )))
(assert (forall ((cost Real) (x Real) (y Real) ) (=> (and (>= (+ (* 1 1) (* (- 1) x ) (* (- 1) y ) ) 0) (>= (* 1 y ) 0) (>= (* 1 x ) 0) (>= (+ (* 1 1) (* 1 cost ) (* (- 1) x ) (* (- 1) y ) ) 0) (>= (* 1 cost ) 0) (>= (+ (* 1 1) (* (- 1) x ) ) 0) (>= (+ (* 1 1) (* (- 1) y ) ) 0) ) (>= (+ (* (- 1) 1) (* 1 c_0 ) (* 1 c_1 cost ) (* (- 1) c_10 ) (* (- 1) c_11 cost ) (* (- 1) c_12 cost x ) (* (- 1) c_13 cost y ) (* (- 1) c_14 cost cost ) (* (- 1) c_15 x ) (* (- 1) c_16 x y ) (* (- 1) c_17 x x ) (* (- 1) c_18 y ) (* (- 1) c_19 y y ) (* 1 c_2 cost x ) (* 1 c_3 cost y ) (* 1 c_4 cost cost ) (* 1 c_5 x ) (* 1 c_6 x y ) (* 1 c_7 x x ) (* 1 c_8 y ) (* 1 c_9 y y ) ) 0) )))
(assert (forall ((cost Real) (x Real) (y Real) ) (=> (and (>= (+ (* 1 1) (* (- 1) x ) (* (- 1) y ) ) 0) (>= (* 1 y ) 0) (>= (* 1 x ) 0) (>= (+ (* 1 1) (* 1 cost ) (* (- 1) x ) (* (- 1) y ) ) 0) (>= (* 1 cost ) 0) (>= (+ (* 1 1) (* (- 1) x ) ) 0) (>= (+ (* 1 1) (* (- 1) y ) ) 0) ) (>= (+ (* 1 c_10 ) (* 1 c_11 cost ) (* 1 c_12 cost x ) (* 1 c_13 cost y ) (* 1 c_14 cost cost ) (* 1 c_15 x ) (* 1 c_16 x y ) (* 1 c_17 x x ) (* 1 c_18 y ) (* 1 c_19 y y ) ) 0) )))
(assert (forall ((cost Real) (x Real) (y Real) ) (=> (and (>= (+ (* (- 2) 1) (* 1 x ) (* 1 y ) ) 0) (>= (* 1 y ) 0) (>= (* 1 x ) 0) (>= (+ (* 1 1) (* 1 cost ) (* (- 1) x ) (* (- 1) y ) ) 0) (>= (* 1 cost ) 0) (>= (+ (* 1 1) (* (- 1) x ) ) 0) (>= (+ (* 1 1) (* (- 1) y ) ) 0) ) (>= (+ (* (- 1) 1) (* 1 c_0 ) (* 1 c_1 cost ) (* 1 c_2 cost x ) (* 1 c_3 cost y ) (* 1 c_4 cost cost ) (* 1 c_5 x ) (* (- 1) c_50 ) (* (- 1) c_51 cost ) (* (- 1) c_52 cost x ) (* (- 1) c_53 cost y ) (* (- 1) c_54 cost cost ) (* (- 1) c_55 x ) (* (- 1) c_56 x y ) (* (- 1) c_57 x x ) (* (- 1) c_58 y ) (* (- 1) c_59 y y ) (* 1 c_6 x y ) (* 1 c_7 x x ) (* 1 c_8 y ) (* 1 c_9 y y ) ) 0) )))
(assert (forall ((cost Real) (x Real) (y Real) ) (=> (and (>= (+ (* (- 2) 1) (* 1 x ) (* 1 y ) ) 0) (>= (* 1 y ) 0) (>= (* 1 x ) 0) (>= (+ (* 1 1) (* 1 cost ) (* (- 1) x ) (* (- 1) y ) ) 0) (>= (* 1 cost ) 0) (>= (+ (* 1 1) (* (- 1) x ) ) 0) (>= (+ (* 1 1) (* (- 1) y ) ) 0) ) (>= (+ (* 1 c_50 ) (* 1 c_51 cost ) (* 1 c_52 cost x ) (* 1 c_53 cost y ) (* 1 c_54 cost cost ) (* 1 c_55 x ) (* 1 c_56 x y ) (* 1 c_57 x x ) (* 1 c_58 y ) (* 1 c_59 y y ) ) 0) )))
(assert (forall ((cost Real) (x Real) (y Real) ) (=> (and (>= (* 1 y ) 0) (>= (* 1 x ) 0) (>= (+ (* 1 1) (* (- 1) x ) (* (- 1) y ) ) 0) (>= (* 1 cost ) 0) ) (>= (+ (* (- 1) 1) (* 1 c_10 ) (* 1 c_11 cost ) (* 1 c_12 cost x ) (* 1 c_13 cost y ) (* 1 c_14 cost cost ) (* 1 c_15 x ) (* 1 c_16 x y ) (* 1 c_17 x x ) (* 1 c_18 y ) (* 1 c_19 y y ) (* (- 1) c_20 ) (* (- 1) c_21 cost ) (* (- 1) c_21 x ) (* (- 1) c_21 y ) (* (- 1) c_22 cost x ) (* (- 1) c_22 x y ) (* (- 1) c_22 x x ) (* (- 1) c_23 cost y ) (* (- 1) c_23 x y ) (* (- 1) c_23 y y ) (* (- 2) c_24 cost x ) (* (- 2) c_24 cost y ) (* (- 1) c_24 cost cost ) (* (- 2) c_24 x y ) (* (- 1) c_24 x x ) (* (- 1) c_24 y y ) (* (- 1) c_25 x ) (* (- 1) c_26 x y ) (* (- 1) c_27 x x ) (* (- 1) c_28 y ) (* (- 1) c_29 y y ) ) 0) )))
(assert (forall ((cost Real) (x Real) (y Real) ) (=> (and (>= (* 1 y ) 0) (>= (* 1 x ) 0) (>= (+ (* 1 1) (* (- 1) x ) (* (- 1) y ) ) 0) (>= (* 1 cost ) 0) ) (>= (+ (* 1 c_20 ) (* 1 c_21 cost ) (* 1 c_22 cost x ) (* 1 c_23 cost y ) (* 1 c_24 cost cost ) (* 1 c_25 x ) (* 1 c_26 x y ) (* 1 c_27 x x ) (* 1 c_28 y ) (* 1 c_29 y y ) ) 0) )))
(assert (forall ((cost Real) (x Real) (y Real) ) (=> (and (>= (* 1 x ) 0) (>= (+ (* 1 1) (* (- 1) x ) (* (- 1) y ) ) 0) (>= (* 1 y ) 0) (>= (+ (* 1 cost ) (* (- 1) x ) (* (- 1) y ) ) 0) ) (>= (+ (* 1 c_20 ) (* 1 c_21 cost ) (* 1 c_22 cost x ) (* 1 c_23 cost y ) (* 1 c_24 cost cost ) (* 1 c_25 x ) (* 1 c_26 x y ) (* 1 c_27 x x ) (* 1 c_28 y ) (* 1 c_29 y y ) (* (/ (- 1) 2) c_30 ) (* (/ (- 1) 2) c_31 cost ) (* (/ (- 1) 2) c_32 cost x ) (* (/ (- 1) 2) c_33 cost y ) (* (/ (- 1) 2) c_34 cost cost ) (* (/ (- 1) 2) c_35 x ) (* (/ (- 1) 2) c_36 x y ) (* (/ (- 1) 2) c_37 x x ) (* (/ (- 1) 2) c_38 y ) (* (/ (- 1) 2) c_39 y y ) (* (/ (- 1) 2) c_40 ) (* (/ (- 1) 2) c_41 cost ) (* (/ (- 1) 2) c_42 cost x ) (* (/ (- 1) 2) c_43 cost y ) (* (/ (- 1) 2) c_44 cost cost ) (* (/ (- 1) 2) c_45 x ) (* (/ (- 1) 2) c_46 x y ) (* (/ (- 1) 2) c_47 x x ) (* (/ (- 1) 2) c_48 y ) (* (/ (- 1) 2) c_49 y y ) ) 0) )))
(assert (forall ((cost Real) (x Real) (y Real) ) (=> (and (>= (* 1 x ) 0) (>= (+ (* 1 1) (* (- 1) x ) (* (- 1) y ) ) 0) (>= (* 1 y ) 0) (>= (+ (* 1 cost ) (* (- 1) x ) (* (- 1) y ) ) 0) ) (>= (+ (* (/ 1 2) c_30 ) (* (/ 1 2) c_31 cost ) (* (/ 1 2) c_32 cost x ) (* (/ 1 2) c_33 cost y ) (* (/ 1 2) c_34 cost cost ) (* (/ 1 2) c_35 x ) (* (/ 1 2) c_36 x y ) (* (/ 1 2) c_37 x x ) (* (/ 1 2) c_38 y ) (* (/ 1 2) c_39 y y ) (* (/ 1 2) c_40 ) (* (/ 1 2) c_41 cost ) (* (/ 1 2) c_42 cost x ) (* (/ 1 2) c_43 cost y ) (* (/ 1 2) c_44 cost cost ) (* (/ 1 2) c_45 x ) (* (/ 1 2) c_46 x y ) (* (/ 1 2) c_47 x x ) (* (/ 1 2) c_48 y ) (* (/ 1 2) c_49 y y ) ) 0) )))
(assert (forall ((cost Real) (x Real) (y Real) ) (=> (and (>= (* 1 x ) 0) (>= (+ (* 1 1) (* (- 1) x ) (* (- 1) y ) ) 0) (>= (* 1 y ) 0) (>= (+ (* 1 cost ) (* (- 1) x ) (* (- 1) y ) ) 0) ) (>= (+ (* (- 1) 1) (* 1 c_30 ) (* 1 c_31 cost ) (* 1 c_32 cost x ) (* 1 c_33 cost y ) (* 1 c_34 cost cost ) (* 1 c_35 x ) (* 1 c_36 x y ) (* 1 c_37 x x ) (* 1 c_38 y ) (* 1 c_39 y y ) (* (- 1) c_60 ) (* (- 1) c_61 cost ) (* (- 1) c_62 cost ) (* (- 1) c_63 cost y ) (* (- 1) c_64 cost cost ) (* (- 1) c_65 ) (* (- 1) c_66 y ) (* (- 1) c_67 ) (* (- 1) c_68 y ) (* (- 1) c_69 y y ) ) 0) )))
(assert (forall ((cost Real) (x Real) (y Real) ) (=> (and (>= (* 1 x ) 0) (>= (+ (* 1 1) (* (- 1) x ) (* (- 1) y ) ) 0) (>= (* 1 y ) 0) (>= (+ (* 1 cost ) (* (- 1) x ) (* (- 1) y ) ) 0) ) (>= (+ (* 1 c_60 ) (* 1 c_61 cost ) (* 1 c_62 cost x ) (* 1 c_63 cost y ) (* 1 c_64 cost cost ) (* 1 c_65 x ) (* 1 c_66 x y ) (* 1 c_67 x x ) (* 1 c_68 y ) (* 1 c_69 y y ) ) 0) )))
(assert (forall ((cost Real) (x Real) (y Real) ) (=> (and (>= (* 1 x ) 0) (>= (+ (* 1 1) (* (- 1) x ) (* (- 1) y ) ) 0) (>= (* 1 y ) 0) (>= (+ (* 1 cost ) (* (- 1) x ) (* (- 1) y ) ) 0) ) (>= (+ (* (- 1) 1) (* 1 c_40 ) (* 1 c_41 cost ) (* 1 c_42 cost x ) (* 1 c_43 cost y ) (* 1 c_44 cost cost ) (* 1 c_45 x ) (* 1 c_46 x y ) (* 1 c_47 x x ) (* 1 c_48 y ) (* 1 c_49 y y ) (* (- 1) c_60 ) (* (- 1) c_61 cost ) (* (- 1) c_62 cost x ) (* (- 1) c_63 cost ) (* (- 1) c_64 cost cost ) (* (- 1) c_65 x ) (* (- 1) c_66 x ) (* (- 1) c_67 x x ) (* (- 1) c_68 ) (* (- 1) c_69 ) ) 0) )))
(assert (forall ((cost Real) (x Real) (y Real) ) (=> (and (>= (* 1 x ) 0) (>= (+ (* 1 1) (* (- 1) x ) (* (- 1) y ) ) 0) (>= (* 1 y ) 0) (>= (+ (* 1 cost ) (* (- 1) x ) (* (- 1) y ) ) 0) ) (>= (+ (* 1 c_60 ) (* 1 c_61 cost ) (* 1 c_62 cost x ) (* 1 c_63 cost y ) (* 1 c_64 cost cost ) (* 1 c_65 x ) (* 1 c_66 x y ) (* 1 c_67 x x ) (* 1 c_68 y ) (* 1 c_69 y y ) ) 0) )))
(assert (forall ((cost Real) (x Real) (y Real) ) (=> (and (>= (+ (* (- 1) 1) (* 1 x ) (* 1 y ) ) 0) (>= (+ (* 1 1) (* 1 cost ) (* (- 1) x ) (* (- 1) y ) ) 0) (>= (+ (* 1 1) (* (- 1) x ) ) 0) (>= (+ (* 1 1) (* (- 1) y ) ) 0) (>= (* 1 y ) 0) (>= (* 1 x ) 0) ) (>= (+ (* (- 1) 1) (* (- 1) c_0 ) (* (- 1) c_1 cost ) (* (- 1) c_2 cost x ) (* (- 1) c_3 cost y ) (* (- 1) c_4 cost cost ) (* (- 1) c_5 x ) (* (- 1) c_6 x y ) (* 1 c_60 ) (* 1 c_61 cost ) (* 1 c_62 cost x ) (* 1 c_63 cost y ) (* 1 c_64 cost cost ) (* 1 c_65 x ) (* 1 c_66 x y ) (* 1 c_67 x x ) (* 1 c_68 y ) (* 1 c_69 y y ) (* (- 1) c_7 x x ) (* (- 1) c_8 y ) (* (- 1) c_9 y y ) ) 0) )))
(assert (forall ((cost Real) (x Real) (y Real) ) (=> (and (>= (+ (* (- 1) 1) (* 1 x ) (* 1 y ) ) 0) (>= (+ (* 1 1) (* 1 cost ) (* (- 1) x ) (* (- 1) y ) ) 0) (>= (+ (* 1 1) (* (- 1) x ) ) 0) (>= (+ (* 1 1) (* (- 1) y ) ) 0) (>= (* 1 y ) 0) (>= (* 1 x ) 0) ) (>= (+ (* 1 c_0 ) (* 1 c_1 cost ) (* 1 c_2 cost x ) (* 1 c_3 cost y ) (* 1 c_4 cost cost ) (* 1 c_5 x ) (* 1 c_6 x y ) (* 1 c_7 x x ) (* 1 c_8 y ) (* 1 c_9 y y ) ) 0) )))
(check-sat)
(get-model)

